22 4
96 17 49 61 39 10 31 61 26 47 32 16 82 91 83 38 53 38 92 27 49 86
44 75 60 95 20 69 26 64 18 29 23 59 63 83 17 65 58 63 50 56 23 48
71 41 71 30 51 65 49 49 63 89 51 60 33 29 44 70 88 67 16 45 15 83
67 15 73 12 15 97 70 32 15 76 87 99 80 57 98 76 49 39 57 76 64 33
